\ This file has been generated by DOcplex
\ ENCODING=ISO-8859-1
\Problem name: LABS of size 10

Minimize
 obj: [ 2 C_1^2 + 2 C_2^2 + 2 C_3^2 + 2 C_4^2 + 2 C_5^2 + 2 C_6^2 + 2 C_7^2
      + 2 C_8^2 + 2 C_9^2 ]/2
Subject To
 c1: - 4 b_1 - 4 b_2 - 4 b_3 - 4 b_4 - 4 b_5 - 4 b_6 - 4 b_7 - 4 b_8 - 2 b_9
     - 2 b_10 + 4 b_y_1_2 + 4 b_y_2_3 + 4 b_y_3_4 + 4 b_y_4_5 + 4 b_y_5_6
     + 4 b_y_6_7 + 4 b_y_7_8 + 4 b_y_8_9 + 4 b_y_9_10 - C_1 = -9
 c2: - 2 b_1 - 4 b_2 - 4 b_3 - 4 b_4 - 4 b_5 - 4 b_6 - 4 b_7 - 2 b_8 - 2 b_9
     - 2 b_10 + 4 b_y_1_3 + 4 b_y_2_4 + 4 b_y_3_5 + 4 b_y_4_6 + 4 b_y_5_7
     + 4 b_y_6_8 + 4 b_y_7_9 + 4 b_y_8_10 - C_2 = -8
 c3: - 2 b_1 - 2 b_2 - 4 b_3 - 4 b_4 - 4 b_5 - 4 b_6 - 2 b_7 - 2 b_8 - 2 b_9
     - 2 b_10 + 4 b_y_1_4 + 4 b_y_2_5 + 4 b_y_3_6 + 4 b_y_4_7 + 4 b_y_5_8
     + 4 b_y_6_9 + 4 b_y_7_10 - C_3 = -7
 c4: - 2 b_1 - 2 b_2 - 2 b_3 - 4 b_4 - 4 b_5 - 2 b_6 - 2 b_7 - 2 b_8 - 2 b_9
     - 2 b_10 + 4 b_y_1_5 + 4 b_y_2_6 + 4 b_y_3_7 + 4 b_y_4_8 + 4 b_y_5_9
     + 4 b_y_6_10 - C_4 = -6
 c5: - 2 b_1 - 2 b_2 - 2 b_3 - 2 b_4 - 2 b_5 - 2 b_6 - 2 b_7 - 2 b_8 - 2 b_9
     - 2 b_10 + 4 b_y_1_6 + 4 b_y_2_7 + 4 b_y_3_8 + 4 b_y_4_9 + 4 b_y_5_10 - C_5
      = -5
 c6: - 2 b_1 - 2 b_2 - 2 b_3 - 2 b_6 - 2 b_7 - 2 b_8 - 2 b_9 - 2 b_10
     + 4 b_y_1_7 + 4 b_y_2_8 + 4 b_y_3_9 + 4 b_y_4_10 - C_6 = -4
 c7: - 2 b_1 - 2 b_2 - 2 b_7 - 2 b_8 - 2 b_9 - 2 b_10 + 4 b_y_1_8 + 4 b_y_2_9
     + 4 b_y_3_10 - C_7 = -3
 c8: - 2 b_1 - 2 b_8 - 2 b_9 - 2 b_10 + 4 b_y_1_9 + 4 b_y_2_10 - C_8 = -2
 c9: - 2 b_9 - 2 b_10 + 4 b_y_1_10 - C_9 = -1
 c10: b_y_1_2 - 0.500000000000 b_1 - 0.500000000000 b_2 <= 0
 c11: b_y_1_2 - b_1 - b_2 >= -1
 c12: b_y_2_3 - 0.500000000000 b_2 - 0.500000000000 b_3 <= 0
 c13: b_y_2_3 - b_2 - b_3 >= -1
 c14: b_y_3_4 - 0.500000000000 b_3 - 0.500000000000 b_4 <= 0
 c15: b_y_3_4 - b_3 - b_4 >= -1
 c16: b_y_4_5 - 0.500000000000 b_4 - 0.500000000000 b_5 <= 0
 c17: b_y_4_5 - b_4 - b_5 >= -1
 c18: b_y_5_6 - 0.500000000000 b_5 - 0.500000000000 b_6 <= 0
 c19: b_y_5_6 - b_5 - b_6 >= -1
 c20: b_y_6_7 - 0.500000000000 b_6 - 0.500000000000 b_7 <= 0
 c21: b_y_6_7 - b_6 - b_7 >= -1
 c22: b_y_7_8 - 0.500000000000 b_7 - 0.500000000000 b_8 <= 0
 c23: b_y_7_8 - b_7 - b_8 >= -1
 c24: b_y_8_9 - 0.500000000000 b_8 - 0.500000000000 b_9 <= 0
 c25: b_y_8_9 - b_8 - b_9 >= -1
 c26: b_y_9_10 - 0.500000000000 b_9 - 0.500000000000 b_10 <= 0
 c27: b_y_9_10 - b_9 - b_10 >= -1
 c28: b_y_1_3 - 0.500000000000 b_1 - 0.500000000000 b_3 <= 0
 c29: b_y_1_3 - b_1 - b_3 >= -1
 c30: b_y_2_4 - 0.500000000000 b_2 - 0.500000000000 b_4 <= 0
 c31: b_y_2_4 - b_2 - b_4 >= -1
 c32: b_y_3_5 - 0.500000000000 b_3 - 0.500000000000 b_5 <= 0
 c33: b_y_3_5 - b_3 - b_5 >= -1
 c34: b_y_4_6 - 0.500000000000 b_4 - 0.500000000000 b_6 <= 0
 c35: b_y_4_6 - b_4 - b_6 >= -1
 c36: b_y_5_7 - 0.500000000000 b_5 - 0.500000000000 b_7 <= 0
 c37: b_y_5_7 - b_5 - b_7 >= -1
 c38: b_y_6_8 - 0.500000000000 b_6 - 0.500000000000 b_8 <= 0
 c39: b_y_6_8 - b_6 - b_8 >= -1
 c40: b_y_7_9 - 0.500000000000 b_7 - 0.500000000000 b_9 <= 0
 c41: b_y_7_9 - b_7 - b_9 >= -1
 c42: b_y_8_10 - 0.500000000000 b_8 - 0.500000000000 b_10 <= 0
 c43: b_y_8_10 - b_8 - b_10 >= -1
 c44: b_y_1_4 - 0.500000000000 b_1 - 0.500000000000 b_4 <= 0
 c45: b_y_1_4 - b_1 - b_4 >= -1
 c46: b_y_2_5 - 0.500000000000 b_2 - 0.500000000000 b_5 <= 0
 c47: b_y_2_5 - b_2 - b_5 >= -1
 c48: b_y_3_6 - 0.500000000000 b_3 - 0.500000000000 b_6 <= 0
 c49: b_y_3_6 - b_3 - b_6 >= -1
 c50: b_y_4_7 - 0.500000000000 b_4 - 0.500000000000 b_7 <= 0
 c51: b_y_4_7 - b_4 - b_7 >= -1
 c52: b_y_5_8 - 0.500000000000 b_5 - 0.500000000000 b_8 <= 0
 c53: b_y_5_8 - b_5 - b_8 >= -1
 c54: b_y_6_9 - 0.500000000000 b_6 - 0.500000000000 b_9 <= 0
 c55: b_y_6_9 - b_6 - b_9 >= -1
 c56: b_y_7_10 - 0.500000000000 b_7 - 0.500000000000 b_10 <= 0
 c57: b_y_7_10 - b_7 - b_10 >= -1
 c58: b_y_1_5 - 0.500000000000 b_1 - 0.500000000000 b_5 <= 0
 c59: b_y_1_5 - b_1 - b_5 >= -1
 c60: b_y_2_6 - 0.500000000000 b_2 - 0.500000000000 b_6 <= 0
 c61: b_y_2_6 - b_2 - b_6 >= -1
 c62: b_y_3_7 - 0.500000000000 b_3 - 0.500000000000 b_7 <= 0
 c63: b_y_3_7 - b_3 - b_7 >= -1
 c64: b_y_4_8 - 0.500000000000 b_4 - 0.500000000000 b_8 <= 0
 c65: b_y_4_8 - b_4 - b_8 >= -1
 c66: b_y_5_9 - 0.500000000000 b_5 - 0.500000000000 b_9 <= 0
 c67: b_y_5_9 - b_5 - b_9 >= -1
 c68: b_y_6_10 - 0.500000000000 b_6 - 0.500000000000 b_10 <= 0
 c69: b_y_6_10 - b_6 - b_10 >= -1
 c70: b_y_1_6 - 0.500000000000 b_1 - 0.500000000000 b_6 <= 0
 c71: b_y_1_6 - b_1 - b_6 >= -1
 c72: b_y_2_7 - 0.500000000000 b_2 - 0.500000000000 b_7 <= 0
 c73: b_y_2_7 - b_2 - b_7 >= -1
 c74: b_y_3_8 - 0.500000000000 b_3 - 0.500000000000 b_8 <= 0
 c75: b_y_3_8 - b_3 - b_8 >= -1
 c76: b_y_4_9 - 0.500000000000 b_4 - 0.500000000000 b_9 <= 0
 c77: b_y_4_9 - b_4 - b_9 >= -1
 c78: b_y_5_10 - 0.500000000000 b_5 - 0.500000000000 b_10 <= 0
 c79: b_y_5_10 - b_5 - b_10 >= -1
 c80: b_y_1_7 - 0.500000000000 b_1 - 0.500000000000 b_7 <= 0
 c81: b_y_1_7 - b_1 - b_7 >= -1
 c82: b_y_2_8 - 0.500000000000 b_2 - 0.500000000000 b_8 <= 0
 c83: b_y_2_8 - b_2 - b_8 >= -1
 c84: b_y_3_9 - 0.500000000000 b_3 - 0.500000000000 b_9 <= 0
 c85: b_y_3_9 - b_3 - b_9 >= -1
 c86: b_y_4_10 - 0.500000000000 b_4 - 0.500000000000 b_10 <= 0
 c87: b_y_4_10 - b_4 - b_10 >= -1
 c88: b_y_1_8 - 0.500000000000 b_1 - 0.500000000000 b_8 <= 0
 c89: b_y_1_8 - b_1 - b_8 >= -1
 c90: b_y_2_9 - 0.500000000000 b_2 - 0.500000000000 b_9 <= 0
 c91: b_y_2_9 - b_2 - b_9 >= -1
 c92: b_y_3_10 - 0.500000000000 b_3 - 0.500000000000 b_10 <= 0
 c93: b_y_3_10 - b_3 - b_10 >= -1
 c94: b_y_1_9 - 0.500000000000 b_1 - 0.500000000000 b_9 <= 0
 c95: b_y_1_9 - b_1 - b_9 >= -1
 c96: b_y_2_10 - 0.500000000000 b_2 - 0.500000000000 b_10 <= 0
 c97: b_y_2_10 - b_2 - b_10 >= -1
 c98: b_y_1_10 - 0.500000000000 b_1 - 0.500000000000 b_10 <= 0
 c99: b_y_1_10 - b_1 - b_10 >= -1

Bounds
 0 <= b_1 <= 1
 0 <= b_2 <= 1
 0 <= b_3 <= 1
 0 <= b_4 <= 1
 0 <= b_5 <= 1
 0 <= b_6 <= 1
 0 <= b_7 <= 1
 0 <= b_8 <= 1
 0 <= b_9 <= 1
 0 <= b_10 <= 1
 0 <= b_y_1_2 <= 1
 0 <= b_y_2_3 <= 1
 0 <= b_y_3_4 <= 1
 0 <= b_y_4_5 <= 1
 0 <= b_y_5_6 <= 1
 0 <= b_y_6_7 <= 1
 0 <= b_y_7_8 <= 1
 0 <= b_y_8_9 <= 1
 0 <= b_y_9_10 <= 1
 0 <= b_y_1_3 <= 1
 0 <= b_y_2_4 <= 1
 0 <= b_y_3_5 <= 1
 0 <= b_y_4_6 <= 1
 0 <= b_y_5_7 <= 1
 0 <= b_y_6_8 <= 1
 0 <= b_y_7_9 <= 1
 0 <= b_y_8_10 <= 1
 0 <= b_y_1_4 <= 1
 0 <= b_y_2_5 <= 1
 0 <= b_y_3_6 <= 1
 0 <= b_y_4_7 <= 1
 0 <= b_y_5_8 <= 1
 0 <= b_y_6_9 <= 1
 0 <= b_y_7_10 <= 1
 0 <= b_y_1_5 <= 1
 0 <= b_y_2_6 <= 1
 0 <= b_y_3_7 <= 1
 0 <= b_y_4_8 <= 1
 0 <= b_y_5_9 <= 1
 0 <= b_y_6_10 <= 1
 0 <= b_y_1_6 <= 1
 0 <= b_y_2_7 <= 1
 0 <= b_y_3_8 <= 1
 0 <= b_y_4_9 <= 1
 0 <= b_y_5_10 <= 1
 0 <= b_y_1_7 <= 1
 0 <= b_y_2_8 <= 1
 0 <= b_y_3_9 <= 1
 0 <= b_y_4_10 <= 1
 0 <= b_y_1_8 <= 1
 0 <= b_y_2_9 <= 1
 0 <= b_y_3_10 <= 1
 0 <= b_y_1_9 <= 1
 0 <= b_y_2_10 <= 1
 0 <= b_y_1_10 <= 1
 -9 <= C_1 <= 9
 -8 <= C_2 <= 8
 -7 <= C_3 <= 7
 -6 <= C_4 <= 6
 -5 <= C_5 <= 5
 -4 <= C_6 <= 4
 -3 <= C_7 <= 3
 -2 <= C_8 <= 2
 -1 <= C_9 <= 1

Binaries
 b_1 b_2 b_3 b_4 b_5 b_6 b_7 b_8 b_9 b_10 b_y_1_2 b_y_2_3 b_y_3_4 b_y_4_5
 b_y_5_6 b_y_6_7 b_y_7_8 b_y_8_9 b_y_9_10 b_y_1_3 b_y_2_4 b_y_3_5 b_y_4_6
 b_y_5_7 b_y_6_8 b_y_7_9 b_y_8_10 b_y_1_4 b_y_2_5 b_y_3_6 b_y_4_7 b_y_5_8
 b_y_6_9 b_y_7_10 b_y_1_5 b_y_2_6 b_y_3_7 b_y_4_8 b_y_5_9 b_y_6_10 b_y_1_6
 b_y_2_7 b_y_3_8 b_y_4_9 b_y_5_10 b_y_1_7 b_y_2_8 b_y_3_9 b_y_4_10 b_y_1_8
 b_y_2_9 b_y_3_10 b_y_1_9 b_y_2_10 b_y_1_10

Generals
 C_1 C_2 C_3 C_4 C_5 C_6 C_7 C_8 C_9
End
